# Solution for model r10_t27_m9_2
# Finished Task: 27 / 27
# Makespan: 445.0, Total Distance: 1232.0, Total Time: 0.2041
# R O S F
0 0 15 0.0 0.0
1 1 29 0.0 0.0
2 2 36 0.0 0.0
3 3 35 0.0 0.0
4 4 11 0.0 0.0
5 5 12 0.0 0.0
6 6 18 0.0 0.0
7 7 23 0.0 0.0
8 8 24 0.0 0.0
9 9 32 0.0 0.0
10 5 21 192.0 219.0
11 4 20 79.0 103.0
12 5 10 90.0 114.0
13 4 17 325.0 357.0
14 6 26 183.0 205.0
15 0 30 95.0 115.0
16 8 -1 383.0 420.0
17 4 -1 411.0 445.0
18 6 14 33.0 66.0
19 3 22 284.0 311.0
20 4 13 146.0 177.0
21 5 25 312.0 346.0
22 3 -1 362.0 387.0
23 7 28 166.0 187.0
24 8 31 152.0 178.0
25 5 -1 407.0 429.0
26 6 34 282.0 306.0
27 7 -1 424.0 444.0
28 7 27 327.0 351.0
29 1 -1 366.0 403.0
30 0 -1 374.0 411.0
31 8 16 252.0 278.0
32 9 33 65.0 90.0
33 9 -1 262.0 285.0
34 6 -1 392.0 416.0
35 3 19 27.0 60.0
36 2 -1 393.0 424.0
